750
[150,151,154,155,157,158,160,161,162,163,164,166,167,169,170,171,172,174,175,176,177,178,179,180,183,185,186,188,189,190,191,192,193,195,198,199,200,201,203,205,206,207,208,209,210,211,212,214,217,218,219,220,221,222,223,225,226,227,228,231,232,233,235,236,237,238,239,240,241,242,243,244,245,247,248,249,250,251,252,253,254,255,256,257,258,260,261,263,264,265,266,267,268,269,270,271,272,273,274,275,276,277,279,280,281,282,283,284,285,286,287,288,289,290,291,293,294,295,296,298,300,301,302,304,305,306,307,308,309,310,311,312,313,315,316,317,318,320,321,323,324,325,326,327,328,329,330,332,335,336,337,338,339,340,341,342,343,344,345,347,349,351,352,353,354,355,357,358,359,360,361,362,363,364,365,366,367,368,369,370,371,372,373,375,376,377,378,379,380,382,383,384,385,386,387,388,390,391,392,393,394,395,396,397,398,399,400,401,403,404,407,408,411,412,413,414,415,416,417,418,419,420,421,422,423,424,425,427,428,429,430,431,432,433,434,435,436,438,439,440,441,442,443,444,445,447,448,449,451,452,453,454,455,456,458,459,460,461,462,463,464,465,467,468,469,470,471,472,474,475,476,477,480,481,482,483,484,485,486,487,489,490,491,492,493,494,495,496,498,499,500,501,502,503,504,505,506,508,509,510,511,512,514,515,516,517,520,524,526,527,528,529,530,531,532,533,534,535,536,537,538,539,540,541,542,543,544,546,547,548,549,550,551,552,553,554,555,556,560,561,562,563,564,565,566,567,568,569,570,571,573,575,577,578,580,582,583,584,585,587,588,589,590,591,592,593,594,595,596,597,598,599,600]
[1,2,2,1,2,2,1,2,1,1,4,2,1,1,1,2,1,3,1,1,3,4,2,3,2,1,1,1,3,1,1,2,3,1,1,2,5,1,1,1,2,2,1,3,1,1,3,3,1,1,1,3,1,2,4,3,1,4,2,2,1,3,1,3,3,3,2,2,5,2,1,1,6,2,2,1,1,2,2,2,3,1,3,1,3,3,2,1,4,1,2,2,2,2,2,2,1,2,4,1,1,1,2,1,3,1,1,1,3,2,4,1,3,1,1,1,3,1,1,2,2,2,4,1,2,1,1,2,1,3,1,1,2,2,1,3,1,1,1,1,1,2,2,1,2,3,2,3,1,3,4,3,2,1,2,1,4,2,1,1,2,2,2,2,2,1,1,1,3,2,1,4,1,1,2,3,3,2,2,1,2,1,6,2,1,2,3,4,1,1,2,1,5,3,1,2,4,2,2,1,2,2,1,4,3,2,2,3,1,2,4,1,2,1,1,1,1,3,4,1,3,1,3,3,2,2,4,3,3,1,4,2,1,1,5,2,2,2,2,2,1,2,1,3,2,2,3,3,1,3,2,1,2,2,2,2,3,1,2,3,1,1,1,2,2,1,1,1,2,2,2,3,1,1,2,2,1,4,1,1,5,2,2,1,2,2,1,2,1,1,2,1,3,2,3,2,2,2,1,3,2,2,3,3,4,3,1,1,2,1,1,3,1,2,2,2,5,2,2,5,2,2,5,1,1,3,1,1,1,3,1,2,2,5,1,1,3,1,1,1,1,2,2,2,5,1,1,2,3,1,1,2,1,2,2,2,2,1,2,1,4,3,1,3,2,3,1,3,3,1,5,4,3]
